(declare-fun temp559_1 () (_ BitVec 64))
(declare-fun var267855 () (_ BitVec 64))
(declare-fun k!0 () Bool)
(declare-fun ARGNAME_input_NAMEEND_DIM () (_ BitVec 64))
(declare-fun ARGNAME_target_NAMEEND_DIM () (_ BitVec 64))
(declare-fun temp559_2 () (_ BitVec 64))
(declare-fun ARGNAME_label_smoothing_NAMEEND () (_ BitVec 64))
(declare-fun var70865 () (_ BitVec 64))
(declare-fun temp559_3 () (_ BitVec 64))
(declare-fun temp559_4 () (_ BitVec 64))
(declare-fun var70867 () (_ BitVec 64))
(declare-fun temp559_5 () (_ BitVec 64))
(declare-fun temp559_6 () (_ BitVec 64))
(declare-fun var921507 () (_ BitVec 64))
(declare-fun var921510 () (_ BitVec 64))
(declare-fun var1117505 () (_ BitVec 64))
(declare-fun temp559_8 () (_ BitVec 64))
(declare-fun temp559_7 () (_ BitVec 64))
(declare-fun temp559_9 () (_ BitVec 64))
(declare-fun var917872 () (_ BitVec 64))
(declare-fun temp559_10 () (_ BitVec 64))
(declare-fun temp559_11 () (_ BitVec 64))
(declare-fun ARGNAME_weight_NAMEEND_DIMSIZE
             ()
             (Array (_ BitVec 64) (_ BitVec 64)))
(declare-fun temp559_12 () (_ BitVec 64))
(declare-fun temp559_13 () (_ BitVec 64))
(declare-fun temp559_14 () (_ BitVec 64))
(declare-fun temp559_15 () (_ BitVec 64))
(declare-fun temp559_16 () (_ BitVec 64))
(declare-fun temp559_17 () (_ BitVec 64))
(declare-fun temp559_18 () (_ BitVec 64))
(declare-fun temp559_19 () (_ BitVec 64))
(declare-fun temp559_20 () (_ BitVec 64))
(declare-fun temp559_21 () (_ BitVec 64))
(declare-fun temp559_22 () (_ BitVec 64))
(declare-fun temp559_23 () (_ BitVec 64))
(declare-fun temp559_24 () (_ BitVec 64))
(declare-fun temp559_25 () (_ BitVec 64))
(declare-fun temp559_26 () (_ BitVec 64))
(declare-fun temp559_27 () (_ BitVec 64))
(declare-fun temp559_28 () (_ BitVec 64))
(declare-fun ARGNAME_weight_NAMEEND_DIM () (_ BitVec 64))
(declare-fun temp559_29 () (_ BitVec 64))
(declare-fun temp559_30 () (_ BitVec 64))
(declare-fun var921553 () (_ BitVec 64))
(declare-fun var2690473 () (_ BitVec 64))
(declare-fun temp559_31 () (_ BitVec 64))
(declare-fun var3280385 () (_ BitVec 64))
(declare-fun temp559_33 () (_ BitVec 64))
(declare-fun temp559_32 () (_ BitVec 64))
(declare-fun temp559_34 () (_ BitVec 64))
(declare-fun var4330259 () (_ BitVec 64))
(declare-fun temp559_35 () (_ BitVec 64))
(declare-fun temp559_36 () (_ BitVec 64))
(declare-fun var4330260 () (_ BitVec 64))
(declare-fun var4330267 () (_ BitVec 64))
(declare-fun temp559_38 () (_ BitVec 64))
(declare-fun temp559_37 () (_ BitVec 64))
(declare-fun temp559_39 () (_ BitVec 64))
(declare-fun ARGNAME_reduction_NAMEEND () (_ BitVec 64))
(assert (= var267855
   (ite (= ARGNAME_input_NAMEEND_DIM ARGNAME_target_NAMEEND_DIM)
        #x0000000000000001
        #x0000000000000000)))
(assert (= temp559_1 #x0000000000000001))
(assert (= var267855 temp559_1))
(assert (= temp559_2 #x0000000000000000))
(assert (= var70865
   (ite (bvsgt ARGNAME_label_smoothing_NAMEEND temp559_2)
        #x0000000000000001
        #x0000000000000000)))
(assert (= temp559_3 #x0000000000000001))
(assert (= var70865 temp559_3))
(assert (= temp559_4 #x0000000000000001))
(assert (= var70867
   (ite (bvsgt ARGNAME_label_smoothing_NAMEEND temp559_4)
        #x0000000000000001
        #x0000000000000000)))
(assert (= temp559_5 #x0000000000000000))
(assert (= var70867 temp559_5))
(assert (= temp559_6 #x0000000000000001))
(assert (= var921507
   (ite (distinct ARGNAME_input_NAMEEND_DIM temp559_6)
        #x0000000000000001
        #x0000000000000000)))
(assert (= var921510 var921507))
(assert (= var1117505 var921510))
(assert (= temp559_8 #x0000000000000001))
(assert (= temp559_7 temp559_8))
(assert (= temp559_9 #x0000000000000000))
(assert (= var917872 temp559_9))
(assert (= temp559_10 #x0000000000000000))
(assert (= temp559_11 temp559_10))
(assert (= temp559_12 (select ARGNAME_weight_NAMEEND_DIMSIZE temp559_11)))
(assert (= temp559_13 #x0000000000000001))
(assert (= temp559_14 temp559_13))
(assert (= temp559_15 (select ARGNAME_weight_NAMEEND_DIMSIZE temp559_14)))
(assert (= temp559_16 #x0000000000000002))
(assert (= temp559_17 temp559_16))
(assert (= temp559_18 (select ARGNAME_weight_NAMEEND_DIMSIZE temp559_17)))
(assert (= temp559_19 #x0000000000000003))
(assert (= temp559_20 temp559_19))
(assert (= temp559_21 (select ARGNAME_weight_NAMEEND_DIMSIZE temp559_20)))
(assert (= temp559_22 #x0000000000000004))
(assert (= temp559_23 temp559_22))
(assert (= temp559_24 (select ARGNAME_weight_NAMEEND_DIMSIZE temp559_23)))
(assert (= temp559_25 #x0000000000000005))
(assert (= temp559_26 temp559_25))
(assert (= temp559_27 (select ARGNAME_weight_NAMEEND_DIMSIZE temp559_26)))
(assert (= temp559_28 #x0000000000000000))
(assert (= temp559_29
   (ite (bvslt var917872 temp559_28)
        (bvadd ARGNAME_weight_NAMEEND_DIM var917872)
        var917872)))
(assert (= temp559_30 (select ARGNAME_weight_NAMEEND_DIMSIZE temp559_29)))
(assert (= var921553 temp559_30))
(assert (bvslt (ite (bvslt var917872 temp559_28)
            (bvadd ARGNAME_weight_NAMEEND_DIM var917872)
            var917872)
       ARGNAME_weight_NAMEEND_DIM))
(assert (= var2690473 var921510))
(assert (= temp559_31 #x0000000000000000))
(assert (= var3280385 temp559_31))
(assert (= temp559_33 #x0000000000000001))
(assert (= temp559_32 temp559_33))
(assert (= temp559_34 #x0000000000000000))
(assert (= var4330259
   (ite (bvslt temp559_32 temp559_34) #x0000000000000001 #x0000000000000000)))
(assert (= temp559_35 #xffffffffffffffff))
(assert (= temp559_36 #x0000000000000000))
(assert (= var4330260 (ite (= var4330259 #x0000000000000001) temp559_35 temp559_36)))
(assert (= var4330267 var4330260))
(assert (= temp559_38 #x0000000000000005))
(assert (= temp559_37 temp559_38))
(assert (= temp559_39 #x0000000000000000))
(assert (or false (= ARGNAME_reduction_NAMEEND temp559_39)))
(model-add temp559_1 () (_ BitVec 64) #x0000000000000001)
(model-add var267855 () (_ BitVec 64) #x0000000000000001)
(model-del k!0)
(model-add ARGNAME_input_NAMEEND_DIM
           ()
           (_ BitVec 64)
           (ite k!0
                ARGNAME_target_NAMEEND_DIM
                (bvnot ARGNAME_target_NAMEEND_DIM)))



